(set-logic QF_S)
(declare-fun var0 () String)
(declare-fun var1 () String)
(declare-fun var2 () String)
(declare-fun var3 () String)
(declare-fun var4 () Int)
(declare-fun var5 () Int)
(declare-fun var6 () Int)
(declare-fun var7 () Int)
(assert (not (str.in.re var0 re.allchar)))
(assert (str.suffixof (str.replace var1 var2 var3) (str.substr var1 var4 var5)))
(assert (< (str.indexof (str.at var3 var6) (str.replace "z9r{c&;x.J" var0 var2) (str.indexof var3 var0 var7)) (str.to.int (str.substr var1 var5 var5))))
(assert (str.prefixof var2 var3))
(check-sat)